/*********************************************
 * OPL 12.6.0.0 Data
 * Author: Adrian Rodriguez Bazaga, Pau Rodriguez Esmerats
 * Creation Date: 06/12/2017 at 23:04:57
 *********************************************/

nNurses=123;
maxConsec=2;
maxPresence=7;
maxHours=5;
minHours=1;
hours=24;
demand= [20 26 35 33 26 35 33 27 28 14 3 1 3 2 3 1 2 1 0 1 19 33 14 27  ];
